c read Graph
c width = 10
c time = 26 ms
c width = 1
c time = 58 ms
c width = 1
c time = 4919 ms
s td 535 2 672
b 1 1
b 2 2
b 3 341 342
b 4 3 341
b 5 5 312
b 6 311 312
b 7 4 311
b 8 6
b 9 7
b 10 565 566
b 11 8 565
b 12 241 242
b 13 8 242
b 14 9
b 15 10
b 16 11 407
b 17 12
b 18 13
b 19 14 374
b 20 15 453
b 21 16
b 22 17
b 23 18 276
b 24 18 552
b 25 19
b 26 20
b 27 363 364
b 28 21 364
b 29 21 205
b 30 22 277
b 31 23
b 32 24
b 33 25 483
b 34 26 667
b 35 151 152
b 36 26 152
b 37 26 484
b 38 28 288
b 39 287 288
b 40 27 287
b 41 649 650
b 42 27 650
b 43 30 207
b 44 503 504
b 45 30 503
b 46 30 300
b 47 299 300
b 48 29 299
b 49 355 356
b 50 31 355
b 51 32
b 52 283 284
b 53 33 284
b 54 33 239
b 55 575 576
b 56 34 575
b 57 35
b 58 36 554
b 59 37
b 60 38 369
b 61 561 562
b 62 39 561
b 63 39 492
b 64 40 476
b 65 41
b 66 42 515
b 67 645 646
b 68 43 646
b 69 313 314
b 70 44 314
b 71 44 577
b 72 45
b 73 46
b 74 163 164
b 75 47 163
b 76 47 295
b 77 48 148
b 78 49
b 79 50 597
b 80 50 664
b 81 50 370
b 82 51
b 83 52 274
b 84 175 176
b 85 53 176
b 86 54 244
b 87 54 643
b 88 55 644
b 89 56 400
b 90 399 400
b 91 55 399
b 92 57 302
b 93 57 441
b 94 315 316
b 95 58 315
b 96 59 296
b 97 495 496
b 98 60 496
b 99 61
b 100 62 334
b 101 62 651
b 102 63 493
b 103 63 652
b 104 63 456
b 105 511 512
b 106 64 511
b 107 261 262
b 108 65 262
b 109 67 290
b 110 289 290
b 111 66 289
b 112 647 648
b 113 68 648
b 114 517 518
b 115 69 518
b 116 69 507
b 117 70
b 118 71 415
b 119 71 178
b 120 72
b 121 73 458
b 122 74 570
b 123 291 292
b 124 74 292
b 125 75 385
b 126 75 501
b 127 75 494
b 128 76
b 129 77 585
b 130 78 556
b 131 555 556
b 132 77 555
b 133 79 410
b 134 79 423
b 135 80
b 136 81 508
b 137 469 470
b 138 83 470
b 139 83 450
b 140 449 450
b 141 82 449
b 142 84
b 143 85 195
b 144 85 384
b 145 98 197
b 146 98 298
b 147 297 298
b 148 86 297
b 149 87 386
b 150 88 280
b 151 88 579
b 152 185 186
b 153 88 185
b 154 89 580
b 155 89 586
b 156 211 212
b 157 90 211
b 158 91 431
b 159 92 432
b 160 94 471
b 161 581 582
b 162 94 581
b 163 94 286
b 164 94 486
b 165 485 486
b 166 93 485
b 167 95 607
b 168 96
b 169 97 629
b 170 97 222
b 171 99 671
b 172 100 634
b 173 359 360
b 174 101 360
b 175 309 310
b 176 101 309
b 177 102 641
b 178 103 406
b 179 104 609
b 180 104 156
b 181 105 172
b 182 106 635
b 183 106 159
b 184 487 488
b 185 131 487
b 186 131 325
b 187 131 230
b 188 229 230
b 189 119 229
b 190 119 618
b 191 119 378
b 192 377 378
b 193 107 377
b 194 108
b 195 109 547
b 196 110 247
b 197 343 344
b 198 110 344
b 199 111 672
b 200 371 372
b 201 111 371
b 202 112 161
b 203 112 640
b 204 509 510
b 205 113 509
b 206 114 537
b 207 114 601
b 208 115 481
b 209 116 482
b 210 117 500
b 211 118 160
b 212 118 150
b 213 149 150
b 214 117 149
b 215 120 452
b 216 120 228
b 217 121 548
b 218 122
b 219 657 658
b 220 123 657
b 221 124 162
b 222 124 595
b 223 603 604
b 224 125 603
b 225 361 362
b 226 126 362
b 227 126 602
b 228 233 234
b 229 126 233
b 230 126 611
b 231 127 463
b 232 128 179
b 233 129 527
b 234 587 588
b 235 129 588
b 236 130 347
b 237 130 321
b 238 130 528
b 239 132
b 240 133
b 241 573 574
b 242 134 574
b 243 257 258
b 244 134 258
b 245 135 237
b 246 136
b 247 137 584
b 248 137 391
b 249 138 392
b 250 173 174
b 251 139 174
b 252 140 489
b 253 141 619
b 254 141 318
b 255 142 620
b 256 143
b 257 144 530
b 258 563 564
b 259 144 564
b 260 145 146
b 261 147
b 262 153 154
b 263 155
b 264 157
b 265 158
b 266 165 166
b 267 167 168
b 268 169
b 269 170
b 270 171
b 271 177
b 272 180
b 273 181
b 274 182
b 275 183 184
b 276 187
b 277 188
b 278 189
b 279 190
b 280 191 192
b 281 193 194
b 282 196
b 283 198
b 284 199 200
b 285 201
b 286 202
b 287 203
b 288 204
b 289 206
b 290 208
b 291 209
b 292 210
b 293 213 214
b 294 215
b 295 216
b 296 217
b 297 218
b 298 219 220
b 299 221
b 300 223
b 301 224
b 302 225
b 303 226
b 304 227
b 305 231
b 306 232
b 307 235
b 308 236
b 309 238
b 310 240
b 311 243
b 312 245
b 313 246
b 314 248
b 315 249
b 316 250
b 317 251
b 318 252
b 319 253
b 320 254
b 321 255
b 322 256
b 323 259 260
b 324 263 264
b 325 265
b 326 266
b 327 267
b 328 268
b 329 269
b 330 270
b 331 271 272
b 332 273
b 333 275
b 334 278
b 335 279
b 336 281
b 337 282
b 338 285
b 339 293 294
b 340 301
b 341 303
b 342 304
b 343 305 306
b 344 307 308
b 345 317
b 346 319
b 347 320
b 348 322
b 349 323
b 350 324
b 351 326
b 352 327
b 353 328
b 354 329 330
b 355 331
b 356 332
b 357 333
b 358 335
b 359 336
b 360 337
b 361 338
b 362 339
b 363 340
b 364 345
b 365 346
b 366 348
b 367 349
b 368 350
b 369 351 352
b 370 353
b 371 354
b 372 357
b 373 358
b 374 365
b 375 366
b 376 367
b 377 368
b 378 373
b 379 375 376
b 380 379
b 381 380
b 382 381 382
b 383 383
b 384 387 388
b 385 389 390
b 386 393
b 387 394
b 388 395
b 389 396
b 390 397
b 391 398
b 392 401 402
b 393 403
b 394 404
b 395 405
b 396 408
b 397 409
b 398 411 412
b 399 413
b 400 414
b 401 416
b 402 417
b 403 418
b 404 419 420
b 405 421
b 406 422
b 407 424
b 408 425
b 409 426
b 410 427 428
b 411 429
b 412 430
b 413 433
b 414 434
b 415 435 436
b 416 437 438
b 417 439
b 418 440
b 419 442
b 420 443
b 421 444
b 422 445
b 423 446
b 424 447
b 425 448
b 426 451
b 427 454
b 428 455
b 429 457
b 430 459
b 431 460
b 432 461 462
b 433 464
b 434 465 466
b 435 467
b 436 468
b 437 472
b 438 473 474
b 439 475
b 440 477 478
b 441 479
b 442 480
b 443 490
b 444 491
b 445 497
b 446 498
b 447 499
b 448 502
b 449 505
b 450 506
b 451 513 514
b 452 516
b 453 519
b 454 520
b 455 521
b 456 522
b 457 523
b 458 524
b 459 525 526
b 460 529
b 461 531
b 462 532
b 463 533
b 464 534
b 465 535
b 466 536
b 467 538
b 468 539
b 469 540
b 470 541
b 471 542
b 472 543 544
b 473 545 546
b 474 549
b 475 550
b 476 551
b 477 553
b 478 557
b 479 558
b 480 559
b 481 560
b 482 567
b 483 568
b 484 569
b 485 571
b 486 572
b 487 578
b 488 583
b 489 589
b 490 590
b 491 591
b 492 592
b 493 593 594
b 494 596
b 495 598
b 496 599
b 497 600
b 498 605
b 499 606
b 500 608
b 501 610
b 502 612
b 503 613
b 504 614
b 505 615
b 506 616
b 507 617
b 508 621
b 509 622
b 510 623 624
b 511 625 626
b 512 627
b 513 628
b 514 630
b 515 631
b 516 632
b 517 633
b 518 636
b 519 637
b 520 638
b 521 639
b 522 642
b 523 653
b 524 654
b 525 655 656
b 526 659
b 527 660
b 528 661
b 529 662
b 530 663
b 531 665
b 532 666
b 533 668
b 534 669
b 535 670
1 2
1 3
1 5
1 8
1 9
1 10
1 14
1 15
1 16
1 17
1 18
1 19
1 20
1 21
1 22
1 23
1 25
1 26
1 27
1 30
1 31
1 32
1 33
1 34
1 38
1 43
1 49
1 51
1 52
1 55
1 57
1 58
1 59
1 60
1 61
1 64
1 65
1 66
1 67
1 69
1 72
1 73
1 74
1 77
1 78
1 79
1 82
1 83
1 84
1 86
1 88
1 92
1 94
1 96
1 97
1 99
1 100
1 102
1 105
1 107
1 109
1 112
1 114
1 117
1 118
1 120
1 121
1 122
1 125
1 128
1 129
1 133
1 135
1 136
1 137
1 142
1 143
1 145
1 149
1 150
1 154
1 156
1 158
1 159
1 160
1 167
1 168
1 169
1 171
1 172
1 173
1 177
1 178
1 179
1 181
1 182
1 184
1 194
1 195
1 196
1 199
1 202
1 204
1 206
1 208
1 209
1 210
1 215
1 217
1 218
1 219
1 221
1 223
1 225
1 231
1 232
1 233
1 236
1 239
1 240
1 241
1 245
1 246
1 247
1 249
1 250
1 252
1 253
1 255
1 256
1 257
1 260
1 261
1 262
1 263
1 264
1 265
1 266
1 267
1 268
1 269
1 270
1 271
1 272
1 273
1 274
1 275
1 276
1 277
1 278
1 279
1 280
1 281
1 282
1 283
1 284
1 285
1 286
1 287
1 288
1 289
1 290
1 291
1 292
1 293
1 294
1 295
1 296
1 297
1 298
1 299
1 300
1 301
1 302
1 303
1 304
1 305
1 306
1 307
1 308
1 309
1 310
1 311
1 312
1 313
1 314
1 315
1 316
1 317
1 318
1 319
1 320
1 321
1 322
1 323
1 324
1 325
1 326
1 327
1 328
1 329
1 330
1 331
1 332
1 333
1 334
1 335
1 336
1 337
1 338
1 339
1 340
1 341
1 342
1 343
1 344
1 345
1 346
1 347
1 348
1 349
1 350
1 351
1 352
1 353
1 354
1 355
1 356
1 357
1 358
1 359
1 360
1 361
1 362
1 363
1 364
1 365
1 366
1 367
1 368
1 369
1 370
1 371
1 372
1 373
1 374
1 375
1 376
1 377
1 378
1 379
1 380
1 381
1 382
1 383
1 384
1 385
1 386
1 387
1 388
1 389
1 390
1 391
1 392
1 393
1 394
1 395
1 396
1 397
1 398
1 399
1 400
1 401
1 402
1 403
1 404
1 405
1 406
1 407
1 408
1 409
1 410
1 411
1 412
1 413
1 414
1 415
1 416
1 417
1 418
1 419
1 420
1 421
1 422
1 423
1 424
1 425
1 426
1 427
1 428
1 429
1 430
1 431
1 432
1 433
1 434
1 435
1 436
1 437
1 438
1 439
1 440
1 441
1 442
1 443
1 444
1 445
1 446
1 447
1 448
1 449
1 450
1 451
1 452
1 453
1 454
1 455
1 456
1 457
1 458
1 459
1 460
1 461
1 462
1 463
1 464
1 465
1 466
1 467
1 468
1 469
1 470
1 471
1 472
1 473
1 474
1 475
1 476
1 477
1 478
1 479
1 480
1 481
1 482
1 483
1 484
1 485
1 486
1 487
1 488
1 489
1 490
1 491
1 492
1 493
1 494
1 495
1 496
1 497
1 498
1 499
1 500
1 501
1 502
1 503
1 504
1 505
1 506
1 507
1 508
1 509
1 510
1 511
1 512
1 513
1 514
1 515
1 516
1 517
1 518
1 519
1 520
1 521
1 522
1 523
1 524
1 525
1 526
1 527
1 528
1 529
1 530
1 531
1 532
1 533
1 534
1 535
3 4
5 6
6 7
10 11
11 13
12 13
23 24
27 28
28 29
34 36
34 37
35 36
38 39
39 40
40 42
41 42
43 45
43 46
44 45
46 47
47 48
49 50
52 53
53 54
55 56
61 62
62 63
67 68
69 70
70 71
74 75
75 76
79 80
79 81
84 85
86 87
88 91
89 90
90 91
92 93
94 95
97 98
100 101
102 103
102 104
105 106
107 108
109 110
110 111
112 113
114 115
115 116
118 119
122 124
123 124
125 126
125 127
129 132
130 131
131 132
133 134
137 138
138 139
139 140
140 141
143 144
145 146
146 147
147 148
150 151
150 153
152 153
154 155
156 157
160 162
160 163
160 164
161 162
164 165
165 166
169 170
173 174
174 176
175 176
179 180
182 183
184 185
185 186
185 187
187 188
188 189
189 190
189 191
191 192
192 193
196 198
197 198
199 201
200 201
202 203
204 205
206 207
210 214
211 212
212 213
213 214
215 216
219 220
221 222
223 224
225 226
226 227
226 229
226 230
228 229
233 235
234 235
236 237
236 238
241 242
242 244
243 244
247 248
250 251
253 254
257 259
258 259
